(set-option :produce-models true)
(set-logic QF_UF)
(declare-fun p33() Bool)
(declare-fun p10() Bool)
(declare-fun p35() Bool)
(declare-fun p77() Bool)
(declare-fun p60() Bool)
(declare-fun p18() Bool)
(declare-fun p78() Bool)
(declare-fun p24() Bool)
(declare-fun p119() Bool)
(declare-fun p104() Bool)
(declare-fun p89() Bool)
(declare-fun p36() Bool)
(declare-fun p114() Bool)
(declare-fun p83() Bool)
(declare-fun p58() Bool)
(declare-fun p111() Bool)
(declare-fun p105() Bool)
(declare-fun p87() Bool)
(declare-fun p116() Bool)
(declare-fun p61() Bool)
(declare-fun p7() Bool)
(declare-fun p100() Bool)
(declare-fun p65() Bool)
(declare-fun p17() Bool)
(declare-fun p73() Bool)
(declare-fun p117() Bool)
(declare-fun p91() Bool)
(declare-fun p99() Bool)
(declare-fun p11() Bool)
(declare-fun p31() Bool)
(declare-fun p22() Bool)
(declare-fun p81() Bool)
(declare-fun p15() Bool)
(declare-fun p94() Bool)
(declare-fun p5() Bool)
(declare-fun p49() Bool)
(declare-fun p46() Bool)
(declare-fun p34() Bool)
(declare-fun p19() Bool)
(declare-fun p52() Bool)
(declare-fun p57() Bool)
(declare-fun p92() Bool)
(declare-fun p97() Bool)
(declare-fun p44() Bool)
(declare-fun p98() Bool)
(declare-fun p56() Bool)
(declare-fun p2() Bool)
(declare-fun p110() Bool)
(declare-fun p75() Bool)
(declare-fun p113() Bool)
(declare-fun p93() Bool)
(declare-fun p20() Bool)
(declare-fun p109() Bool)
(declare-fun p55() Bool)
(declare-fun p26() Bool)
(declare-fun p90() Bool)
(declare-fun p42() Bool)
(declare-fun p39() Bool)
(declare-fun p4() Bool)
(declare-fun p37() Bool)
(declare-fun p103() Bool)
(declare-fun p8() Bool)
(declare-fun p45() Bool)
(declare-fun p0() Bool)
(declare-fun p50() Bool)
(declare-fun p41() Bool)
(declare-fun p95() Bool)
(declare-fun p84() Bool)
(declare-fun p64() Bool)
(declare-fun p80() Bool)
(declare-fun p12() Bool)
(declare-fun p96() Bool)
(declare-fun p29() Bool)
(declare-fun p108() Bool)
(declare-fun p102() Bool)
(declare-fun p9() Bool)
(declare-fun p1() Bool)
(declare-fun p71() Bool)
(declare-fun p16() Bool)
(declare-fun p27() Bool)
(declare-fun p30() Bool)
(declare-fun p3() Bool)
(declare-fun p69() Bool)
(declare-fun p47() Bool)
(declare-fun p54() Bool)
(declare-fun p25() Bool)
(declare-fun p59() Bool)
(declare-fun p88() Bool)
(declare-fun p72() Bool)
(declare-fun p53() Bool)
(declare-fun p38() Bool)
(declare-fun p79() Bool)
(declare-fun p118() Bool)
(declare-fun p21() Bool)
(declare-fun p28() Bool)
(declare-fun p106() Bool)
(declare-fun p68() Bool)
(declare-fun p6() Bool)
(declare-fun p67() Bool)
(declare-fun p112() Bool)
(declare-fun p101() Bool)
(declare-fun p107() Bool)
(declare-fun p76() Bool)
(declare-fun p62() Bool)
(declare-fun p48() Bool)
(declare-fun p40() Bool)
(declare-fun p86() Bool)
(declare-fun p115() Bool)
(declare-fun p43() Bool)
(declare-fun p82() Bool)
(declare-fun p14() Bool)
(declare-fun p74() Bool)
(declare-fun p63() Bool)
(declare-fun p85() Bool)
(declare-fun p66() Bool)
(declare-fun p32() Bool)
(declare-fun p70() Bool)
(declare-fun p51() Bool)
(declare-fun p13() Bool)
(declare-fun p23() Bool)
(assert
(and (or (not p33) (not p10) p35) (or p77 p60 (not p18)) (or p78 (not p24) p119) (or p104 p89 p36) (or (not p60) (not p114) (not p83)) (or p58 p111 (not p105)) (or p87 p116 p61) (or (not p7) (not p100) (not p78)) (or p65 p17 p73) (or (not p36) (not p36) p117) (or (not p91) (not p99) (not p11)) (or p31 (not p22) p81) (or p15 p94 (not p5)) (or p49 (not p61) (not p91)) (or p46 p34 (not p19)) (or (not p35) (not p49) p52) (or (not p57) (not p92) p97) (or (not p116) (not p44) p98) (or (not p81) p56 p2) (or (not p110) p75 (not p113)) (or p33 (not p57) (not p97)) (or p93 (not p20) (not p91)) (or (not p81) (not p109) (not p55)) (or (not p26) p111 (not p36)) (or (not p49) (not p104) (not p90)) (or p42 p39 (not p4)) (or p37 p111 (not p103)) (or (not p4) p8 p44) (or p45 (not p52) p2) (or (not p91) p0 (not p20)) (or p35 p50 (not p39)) (or (not p61) (not p41) p45) (or (not p95) p35 (not p17)) (or (not p84) p64 (not p97)) (or (not p80) (not p12) p100) (or (not p83) (not p96) (not p31)) (or p39 p29 p113) (or (not p108) (not p102) (not p110)) (or p9 p108 (not p34)) (or p92 (not p96) (not p1)) (or p45 p71 p16) (or p27 p30 (not p1)) (or (not p3) p69 p47) (or (not p52) p54 p31) (or (not p78) (not p104) (not p24)) (or (not p25) p75 p25) (or (not p59) p108 p35) (or (not p78) (not p35) (not p2)) (or (not p31) (not p88) (not p64)) (or (not p41) (not p72) p53) (or p83 (not p34) (not p47)) (or p109 (not p41) (not p38)) (or p42 (not p0) p90) (or (not p4) (not p18) (not p79)) (or (not p114) (not p22) p79) (or p78 (not p57) p94) (or p19 p26 p8) (or (not p91) p9 p0) (or (not p71) p108 (not p109)) (or p110 (not p18) p11) (or p118 p29 (not p21)) (or (not p92) (not p28) p45) (or (not p41) p99 (not p106)) (or p21 p44 p18) (or (not p24) (not p68) (not p52)) (or (not p6) (not p36) p111) (or p69 (not p95) p116) (or (not p46) p67 (not p20)) (or (not p55) (not p20) (not p72)) (or p80 (not p112) p18) (or p101 (not p50) p31) (or p118 (not p95) p9) (or (not p80) p97 (not p64)) (or (not p36) p39 (not p27)) (or p81 (not p56) (not p1)) (or p33 p112 (not p38)) (or p20 (not p107) (not p29)) (or (not p106) p19 (not p76)) (or (not p5) p7 (not p62)) (or (not p84) (not p112) (not p45)) (or (not p47) p90 (not p67)) (or p15 (not p90) p93) (or p111 (not p88) p60) (or (not p36) (not p88) (not p18)) (or p37 (not p59) p97) (or (not p28) (not p48) p48) (or (not p3) p117 p52) (or (not p12) p29 (not p27)) (or p50 (not p61) (not p94)) (or p27 p7 (not p87)) (or (not p84) (not p40) p21) (or (not p61) p100 p16) (or (not p61) p69 p96) (or (not p84) (not p56) p58) (or p89 (not p60) p119) (or (not p16) p89 (not p17)) (or p113 (not p50) (not p58)) (or (not p86) (not p115) p16) (or (not p2) p43 p113) (or (not p86) (not p38) (not p71)) (or (not p57) (not p117) (not p90)) (or p82 (not p17) (not p47)) (or (not p110) p108 p79) (or (not p40) (not p87) p34) (or p14 (not p17) (not p38)) (or p98 (not p90) (not p15)) (or (not p58) (not p80) (not p43)) (or p82 p50 (not p81)) (or p31 p3 (not p89)) (or (not p95) (not p74) (not p97)) (or (not p63) (not p81) p39) (or (not p89) (not p43) (not p103)) (or (not p61) p5 p47) (or (not p112) p85 (not p29)) (or p112 (not p29) (not p108)) (or p77 p38 p66) (or (not p32) (not p109) p81) (or p39 p99 p97) (or (not p95) (not p117) p58) (or (not p81) p39 p31) (or p10 p53 p30) (or (not p110) (not p86) (not p6)) (or p107 (not p78) p21) (or p38 (not p116) (not p48)) (or (not p7) p63 (not p104)) (or (not p111) (not p24) (not p77)) (or p64 (not p89) p7) (or (not p24) p115 (not p62)) (or p30 (not p71) (not p14)) (or (not p112) (not p1) p7) (or p74 (not p69) (not p104)) (or p7 p69 (not p75)) (or (not p88) p108 p92) (or (not p6) p117 p83) (or (not p47) (not p70) (not p30)) (or (not p79) p42 p64) (or (not p115) (not p52) (not p52)) (or (not p89) (not p116) p56) (or p89 p96 p3) (or p59 (not p55) p93) (or (not p114) (not p66) (not p0)) (or (not p30) (not p18) p74) (or p85 (not p76) p26) (or p82 p82 (not p86)) (or (not p44) (not p103) p94) (or (not p18) p86 (not p2)) (or (not p34) (not p31) p5) (or p5 p110 (not p34)) (or p102 (not p3) p112) (or p66 p103 (not p87)) (or (not p41) (not p58) (not p38)) (or p105 p90 (not p94)) (or p70 (not p70) p101) (or (not p48) p74 (not p89)) (or (not p85) (not p91) p31) (or (not p6) (not p45) (not p63)) (or p78 (not p63) p0) (or p8 p87 (not p36)) (or (not p24) p103 p24) (or (not p57) (not p85) p70) (or (not p59) (not p96) p68) (or (not p25) (not p51) (not p26)) (or (not p42) (not p56) p21) (or p30 p45 p77) (or (not p8) (not p59) (not p89)) (or (not p71) p32 p33) (or (not p110) (not p18) p49) (or p110 p85 (not p71)) (or p50 (not p101) p32) (or (not p30) (not p24) (not p116)) (or p34 (not p52) p11) (or p16 (not p83) (not p77)) (or p9 p86 (not p93)) (or p65 (not p16) (not p13)) (or (not p74) p102 (not p100)) (or (not p3) p79 p53) (or (not p72) (not p106) p46) (or (not p24) (not p8) p57) (or p18 p119 (not p105)) (or p65 p61 p36) (or p99 p88 p111) (or p104 p96 p100) (or (not p86) (not p57) (not p3)) (or (not p118) p44 (not p12)) (or p51 (not p44) p96) (or (not p54) p22 p28) (or p48 p2 (not p8)) (or p111 p83 (not p96)) (or (not p64) p18 p37) (or (not p28) (not p27) p98) (or p54 p56 p102) (or p80 (not p52) (not p67)) (or (not p19) (not p49) (not p9)) (or p100 (not p61) p19) (or (not p21) (not p73) (not p28)) (or p117 p1 p56) (or (not p37) p65 (not p31)) (or p42 p110 (not p69)) (or (not p37) p37 p60) (or (not p34) p59 (not p35)) (or (not p80) (not p50) (not p44)) (or (not p67) p75 (not p29)) (or (not p58) (not p66) (not p24)) (or (not p21) (not p50) (not p110)) (or p96 (not p107) (not p45)) (or p61 (not p48) p94) (or (not p44) (not p114) (not p88)) (or p71 p119 p79) (or (not p111) p76 (not p18)) (or p23 p104 (not p67)) (or (not p59) (not p44) p109) (or p35 p86 (not p119)) (or p19 p40 (not p37)) (or p119 (not p10) p110) (or (not p3) (not p60) p86) (or p87 p31 p53) (or (not p21) (not p2) (not p26)) (or (not p51) p22 p50) (or (not p8) (not p49) p100) (or p47 (not p99) p56) (or p8 (not p59) (not p51)) (or p95 p103 (not p84)) (or (not p86) p58 p91) (or p40 p68 p98) (or (not p74) p85 (not p103)) (or p117 (not p66) p70) (or (not p39) (not p4) (not p0)) (or p89 p22 (not p73)) (or p27 p39 (not p87)) (or (not p75) (not p100) (not p84)) (or (not p41) p116 (not p58)) (or p46 p1 p0) (or p32 (not p94) (not p86)) (or (not p39) (not p48) p64) (or (not p76) p60 (not p30)) (or p118 (not p65) p44) (or p68 (not p92) p60) (or (not p53) (not p55) p55) (or (not p69) p5 (not p34)) (or p35 p118 (not p58)) (or p35 p87 (not p110)) (or (not p66) (not p89) p111) (or p74 (not p88) (not p70)) (or p64 (not p5) (not p29)) (or (not p83) p8 (not p36)) (or (not p41) (not p18) p33) (or p106 p41 p114) (or p46 p87 p69) (or p39 p102 p15) (or (not p11) (not p0) (not p104)) (or (not p96) p49 p71) (or (not p32) p72 (not p26)) (or p74 p22 (not p21)) (or (not p52) p23 (not p116)) (or p27 p64 (not p70)) (or (not p46) p24 p103) (or p102 p114 p76) (or p56 p54 p105) (or p5 (not p45) (not p119)) (or (not p55) (not p6) (not p3)) (or p39 (not p99) p72) (or (not p6) (not p76) (not p81)) (or (not p102) p9 (not p95)) (or (not p111) (not p28) (not p74)) (or (not p111) (not p28) (not p41)) (or p91 (not p116) (not p88)) (or (not p21) p23 p113) (or (not p103) p51 (not p114)) (or (not p55) (not p53) (not p13)) (or (not p55) p39 (not p110)) (or (not p90) (not p105) (not p15)) (or (not p2) p47 p49) (or p56 (not p24) p70) (or p69 p48 (not p8)) (or p82 p16 (not p38)) (or p13 p70 (not p18)) (or p45 (not p59) (not p113)) (or (not p3) p98 (not p55)) (or p80 p35 p67) (or (not p63) (not p82) p104) (or (not p78) p2 p59) (or (not p26) p85 p98) (or p84 p113 (not p45)) (or (not p104) (not p62) (not p99)) (or (not p58) (not p48) p104) (or (not p41) p95 (not p96)) (or p3 (not p78) (not p24)) (or (not p62) p62 p111) (or p1 (not p107) p66) (or (not p26) (not p47) p46) (or p91 p39 (not p91)) (or p73 (not p15) (not p67)) (or p35 p25 p76) (or (not p62) (not p43) p16) (or p56 p74 (not p111)) (or (not p56) (not p30) (not p110)) (or p89 (not p90) (not p105)) (or p85 p2 (not p35)) (or (not p64) (not p94) p53) (or p20 (not p69) (not p20)) (or p55 (not p27) p93) (or p29 (not p118) p62) (or (not p15) (not p43) p83) (or (not p33) p47 p64) (or p116 (not p3) (not p62)) (or (not p76) p89 (not p57)) (or (not p56) (not p79) (not p66)) (or (not p84) p45 p75) (or p63 p70 p7) (or (not p33) (not p95) p94) (or (not p89) p46 p70) (or p40 p82 (not p2)) (or p62 (not p116) p18) (or p77 (not p67) p28) (or p113 p115 p34) (or p2 p26 (not p70)) (or (not p44) p13 p64) (or p104 p107 p115) (or p17 p88 p23) (or (not p43) p72 p20) (or (not p103) (not p67) (not p87)) (or (not p6) p46 p66) (or p83 (not p102) (not p34)) (or p5 (not p68) (not p84)) (or p37 p84 p96) (or p24 (not p118) p45) (or p75 (not p2) (not p96)) (or (not p118) p3 p62) (or p90 p98 (not p11)) (or p55 (not p55) (not p11)) (or (not p9) (not p46) (not p70)) (or (not p17) p73 p55) (or p111 p97 (not p48)) (or p4 (not p70) (not p60)) (or p16 p80 (not p64)) (or (not p51) (not p98) p51) (or p105 (not p84) p115) (or (not p60) (not p23) (not p87)) (or p119 p18 p46) (or (not p11) p39 (not p68)) (or p115 p76 (not p91)) (or p63 p118 (not p73)) (or p25 p94 p38) (or p74 p44 (not p71)) (or p10 (not p118) p65) (or p71 p54 (not p42)) (or p98 (not p20) (not p58)) (or p73 p23 (not p64)) (or (not p77) (not p56) (not p49)) (or p62 (not p47) (not p18)) (or (not p56) p82 p23) (or (not p114) p107 p107) (or p102 (not p16) (not p46)) (or p32 (not p49) (not p25)) (or (not p35) p64 (not p14)) (or p53 p10 p115) (or p112 p96 p111) (or p88 p39 (not p85)) (or (not p27) p70 p75) (or (not p60) (not p33) p87) (or (not p93) p9 p57) (or p40 p79 (not p93)) (or p109 (not p59) (not p0)) (or p90 p77 (not p87)) (or (not p115) (not p11) p65) (or (not p80) p109 p114) (or (not p41) (not p11) (not p69)) (or p85 (not p20) p53) (or p67 (not p55) p47) (or (not p40) (not p78) p118) (or (not p3) p21 p109) (or (not p20) (not p55) p96) (or p63 (not p1) p105) (or (not p0) p17 (not p12)) (or p76 p79 p16) (or p43 p84 (not p44)) (or p39 (not p101) p66) (or p4 p17 p39) (or p67 (not p56) (not p17)) (or (not p83) p9 p4) (or p87 (not p77) p38) (or p46 p47 p8) (or p6 (not p40) (not p35)) (or (not p22) (not p34) p33) (or p48 (not p116) (not p92)) (or (not p93) p20 p23) (or p39 p55 p44) (or (not p63) (not p28) p83) (or p64 (not p18) p70) (or p10 (not p3) p67) (or (not p20) p80 (not p78)) (or (not p31) p106 (not p117)) (or (not p7) (not p12) p113) (or (not p33) (not p45) (not p53)) (or p15 (not p8) (not p22)) (or p19 p68 p63) (or (not p39) (not p118) p101) (or p117 p77 p118) (or p110 (not p88) p3) (or (not p27) p49 p44) (or (not p8) (not p64) p48) (or (not p52) (not p27) p9) (or (not p81) (not p27) p5) (or p13 (not p82) (not p20)) (or (not p87) p98 p44) (or p49 (not p93) (not p20)) (or p5 p101 (not p111)) (or (not p119) (not p30) (not p83)) (or (not p41) p70 (not p67)) (or (not p49) p89 (not p40)) (or p17 p58 p26) (or (not p83) (not p52) (not p15)) (or (not p16) (not p24) (not p51)) (or (not p54) (not p7) p97) (or p93 (not p103) p23) (or p27 (not p107) (not p96)) (or (not p113) p36 (not p19)) (or p104 (not p114) p0) (or (not p98) (not p103) (not p41)) (or p5 p14 p57) (or p113 (not p45) (not p105)) (or (not p18) p87 (not p99)) (or (not p42) p85 p20) (or (not p18) (not p19) (not p21)) (or p83 p117 p70) (or (not p112) p45 p86) (or (not p92) p82 (not p62)) (or (not p8) (not p99) p100) (or (not p80) p21 p15) (or p70 (not p100) (not p43)) (or p91 (not p67) p72) (or p24 (not p12) (not p83)) (or (not p10) (not p83) p1) (or (not p12) p90 (not p30)) (or p36 p57 p89) (or (not p72) (not p82) p107) (or (not p53) (not p26) (not p18)) (or p22 p95 (not p4)) (or p98 p29 (not p15)) (or p25 (not p101) (not p97)) (or (not p83) (not p59) (not p103)) (or p89 p57 p73) (or (not p48) p87 (not p75)) (or (not p60) (not p117) (not p52)) (or p51 p94 p38) (or (not p8) p11 (not p73)) (or p50 p50 (not p48)) (or (not p79) (not p8) p102) (or (not p39) p36 p33) (or (not p69) p16 p71) (or (not p104) p70 (not p55)) (or (not p101) p116 (not p0)) (or (not p119) p109 p3) (or p51 p45 p66) (or p64 p74 (not p82)) (or p82 (not p0) p1) (or (not p6) p1 p44) (or p88 (not p76) (not p45)) (or p47 p53 (not p58)) (or p110 (not p29) p41) (or (not p80) (not p5) p68) (or p56 p92 (not p118)) (or p4 (not p8) p119) (or (not p88) (not p106) p78) (or (not p21) p51 p94) (or p29 (not p118) p79) (or p32 (not p107) (not p116)) (or (not p43) p117 p97) (or p38 (not p70) (not p108)) (or (not p99) (not p33) (not p24)) (or p62 (not p106) (not p93)) (or (not p94) p71 (not p51)) (or (not p2) (not p57) (not p50)) (or p48 (not p30) p46) (or p50 (not p106) (not p46)) (or p4 (not p23) (not p112)) (or p76 (not p99) (not p81)) (or (not p57) (not p111) p93) (or (not p89) (not p13) p73) (or p19 (not p22) (not p29)) (or (not p108) (not p16) (not p104)) (or (not p64) p10 (not p65)) (or (not p78) p30 p35) (or p34 (not p11) p29) (or (not p103) p71 p58) (or (not p66) p27 (not p3)) (or (not p84) (not p82) p59) (or p19 (not p109) p62) (or p36 (not p108) p87) (or (not p93) p46 (not p95)) (or p28 (not p76) p96) (or (not p95) p22 (not p43)) (or (not p53) p113 (not p72)) (or p55 p19 p26) (or p52 p44 (not p69)) (or p48 p71 (not p113)) (or (not p31) (not p6) p68) (or (not p74) p107 p81) (or p98 p52 p36) (or p89 p31 p60) (or (not p55) p113 (not p65)) (or p76 p1 p109) (or p44 (not p80) p12) (or (not p17) (not p70) (not p19)) (or p66 (not p35) p96) (or (not p99) p60 (not p43)) (or (not p46) (not p112) p80) (or p102 p86 (not p7)) (or (not p32) (not p18) p48) (or p13 (not p95) p80) (or p110 (not p100) p46) (or p78 p25 p27) (or (not p116) p20 p30) (or p54 p43 (not p106)) (or p7 p43 p81) (or (not p55) p109 p76) (or p100 p22 p63) (or (not p59) (not p115) p2) (or p24 (not p113) (not p43)) (or p40 p45 (not p97)) (or p8 p41 p115) (or (not p60) p30 p77) (or (not p24) p108 p42) (or p40 (not p10) p13) (or (not p2) p38 (not p7)) (or (not p63) p20 (not p43)) (or p105 (not p82) p5) (or p76 (not p7) (not p88)) (or (not p2) p22 p21) (or p7 (not p71) p95) (or p101 (not p97) (not p91)) (or p77 (not p50) p117) (or p115 p32 p59) (or p68 p17 p29) (or p65 (not p107) p9) (or (not p79) p54 (not p86)) (or p30 (not p23) p53) (or p116 p29 p27) (or p45 p117 (not p29)) (or (not p94) p78 p44) (or p33 p63 (not p33)) (or p32 p88 (not p14)) (or p109 p19 (not p84)) (or (not p1) (not p53) p10) (or (not p109) (not p92) p6) (or p50 p31 (not p101)) (or p87 p107 (not p20)) (or p98 (not p41) p112) (or p1 p103 (not p41)) (or p106 p43 p115) (or (not p81) (not p91) p39) (or (not p37) (not p53) (not p100)) (or p15 p54 p28) (or p24 p89 (not p6)) (or (not p78) (not p25) (not p45)) (or (not p30) (not p86) p92) (or p75 (not p7) (not p68)) (or (not p11) (not p2) p21) (or (not p69) (not p85) p108) (or (not p95) (not p101) (not p111)) (or (not p42) (not p96) p79) (or p1 (not p35) p63) (or p62 (not p102) p46) (or p77 (not p28) p51) (or (not p110) p54 (not p94)) (or (not p64) (not p79) p14) (or (not p98) p39 (not p39)) (or p75 p77 (not p89)) (or p35 (not p64) p54) (or (not p1) p56 p91) (or (not p77) p52 (not p114)) (or (not p64) (not p12) (not p51)) (or (not p77) p102 p110) (or p37 p28 (not p100)) (or p106 (not p46) (not p70)) (or p115 (not p5) p0) (or p72 (not p4) (not p60)) (or p56 p35 (not p0)) (or (not p99) (not p8) (not p18)) (or p70 (not p96) p101) (or p108 p93 p82) (or (not p10) (not p93) (not p27)) (or (not p44) (not p20) p58) (or (not p32) p1 (not p108)) (or (not p5) p70 p39) (or p5 (not p90) p53) (or p51 p38 p13) (or (not p107) (not p5) p75) (or p60 p104 (not p60)) (or (not p33) (not p83) (not p109)) (or (not p29) p3 p29) (or p93 p111 p66) (or (not p29) p33 p36) (or p115 (not p85) (not p11)) (or (not p72) (not p38) p57) (or (not p4) p32 p55) (or p44 p15 p0) (or (not p100) (not p78) p28) (or (not p113) (not p56) p19))
)
(check-sat)
(get-model)
